5

    69    13    47    84    62
    9    36    94    68    56
    14    62    25    53    39
    96    11    58    18    33
    9    11    53    5    3

    0    50    7    94    53
    50    0    32    23    80
    7    32    0    53    89
    94    23    53    0    12
    53    80    89    12    0

    28    66    57    27    6
    29    99    75    97    62
    94    84    13    10    72
    69    36    99    32    3
    22    54    25    82    36
